
  22    4
  10   10   10   10

   0   0   0   0   0   3 2 3 5 
   8  10  10  10  10   3 11 6 4 
   1  10  10  10  10   2 11 4 
   5  10  10  10  10   4 10 9 8 7 
   9  10  10  10  10   4 11 10 9 7 
   4  10  10  10  10   2 13 8 
   2  10  10  10  10   3 16 14 13 
   8  10  10  10  10   3 16 15 12 
   8  10  10  10  10   2 16 14 
   2  10  10  10  10   2 13 12 
   1  10  10  10  10   2 14 13 
   3  10  10  10  10   5 21 20 19 18 17 
   7  10  10  10  10   2 21 15 
   6  10  10  10  10   2 20 15 
   8  10  10  10  10   3 19 18 17 
  10  10  10  10  10   3 21 20 17 
   3  10  10  10  10   1 22
   3  10  10  10  10   1 22
  10  10  10  10  10   1 22
   4  10  10  10  10   1 22
   8  10  10  10  10   1 22
   0   0   0   0   0   0 
